156	32	4	58	
10	11	8	10

0	0	0	0	0	0	3	1	2	3
1	6	0	0	0	4	3	6	10	13
2	4	0	0	0	3	3	4	6	7
3	2	0	0	0	10	3	5	8	9
4	5	0	0	0	10	3	10	22	26
5	0	4	0	0	2	3	14	19	28
6	5	0	0	0	7	3	17	19	23
7	0	0	8	0	7	3	8	22	26
8	6	0	0	0	1	3	15	20	27
9	0	2	0	0	10	3	10	11	13
10	0	6	0	0	9	3	17	20	24
11	0	0	0	9	9	2	12	18
12	3	0	0	0	4	3	16	19	20
13	8	0	0	0	6	3	14	16	24
14	0	10	0	0	10	3	15	17	25
15	0	4	0	0	2	1	21
16	6	0	0	0	8	3	22	25	26
17	0	0	2	0	3	1	18
18	0	4	0	0	1	2	21	30
19	7	0	0	0	7	3	21	24	25
20	0	0	0	2	2	2	23	29
21	0	3	0	0	3	1	29
22	0	0	2	0	8	2	23	27
23	0	0	1	0	4	1	28
24	0	2	0	0	1	1	30
25	0	0	5	0	2	1	29
26	0	0	3	0	10	1	27
27	0	0	0	10	2	2	28	30
28	0	0	0	6	5	1	31
29	0	9	0	0	1	1	31
30	0	0	5	0	5	1	31
31	0	0	0	0	0	0
